120
150
45
39
43
54
53
31
59
50
89
58
73
82
79
89
74
77
58
77
79
93
25
48
73
23
61
67
22
70
45
47
29
43
63
83
37
59
46
61
38
25
38
55
57
51
82
51
67
94
31
79
65
51
77
76
82
49
83
28
36
90
66
85
61
46
35
69
22
34
46
83
77
53
99
94
92
84
93
29
40
89
76
71
41
45
64
60
60
32
63
32
98
46
90
90
59
36
55
72
28
36
84
28
41
53
61
57
97
67
39
68
31
41
89
28
20
69
92
87
75
58
